TOUR_SECTION
93
43
133
119
188
109
19
34
125
94
90
13
147
87
145
155
5
69
81
63
41
104
52
60
76
3
46
200
143
95
193
4
141
29
171
37
180
67
196
173
138
158
80
157
101
139
14
149
102
132
83
68
31
194
121
130
44
168
49
108
39
120
118
116
36
183
85
198
50
74
153
184
105
42
15
151
61
192
99
2
129
91
128
72
140
6
126
112
186
179
174
56
38
65
182
172
89
51
70
40
148
21
11
86
164
144
53
106
30
161
84
127
165
62
114
176
175
24
75
59
20
100
9
191
78
77
1
146
23
18
79
96
28
82
115
27
134
66
98
7
103
124
48
26
152
167
199
177
190
35
162
189
123
92
187
135
195
12
10
25
110
169
181
113
16
160
156
45
166
88
142
163
71
122
111
57
170
154
32
185
107
150
64
159
58
73
137
33
97
117
22
178
47
131
8
55
136
54
197
17
-1
EOF